p tw 780 11701 7 
1 8 
1 21 
2 9 
2 10 
2 22 
3 7 
3 10 
3 501 
4 8 
4 9 
4 502 
5 7 
5 9 
5 511 
6 8 
6 10 
6 512 
11 17 
11 18 
11 171 
12 19 
12 20 
12 172 
13 17 
13 20 
13 281 
14 18 
14 19 
14 282 
15 17 
15 19 
15 631 
16 18 
16 20 
16 632 
21 27 
21 28 
22 29 
22 30 
23 27 
23 30 
23 301 
24 28 
24 29 
24 302 
25 27 
25 29 
25 481 
26 28 
26 30 
26 482 
31 37 
31 38 
31 431 
32 39 
32 40 
32 432 
33 37 
33 40 
33 461 
34 38 
34 39 
34 462 
35 37 
35 39 
35 751 
36 38 
36 40 
36 752 
41 47 
41 48 
41 231 
42 49 
42 50 
42 232 
43 47 
43 50 
43 283 
44 48 
44 49 
44 284 
45 47 
45 49 
45 633 
46 48 
46 50 
46 634 
51 57 
51 58 
51 691 
52 59 
52 60 
52 692 
53 57 
53 60 
53 711 
54 58 
54 59 
54 712 
55 57 
55 59 
55 753 
56 58 
56 60 
56 754 
61 67 
61 68 
61 531 
62 69 
62 70 
62 532 
63 67 
63 70 
63 561 
64 68 
64 69 
64 562 
65 67 
65 69 
65 581 
66 68 
66 70 
66 582 
71 77 
71 78 
71 351 
72 79 
72 80 
72 352 
73 77 
73 80 
73 401 
74 78 
74 79 
74 402 
75 77 
75 79 
75 591 
76 78 
76 80 
76 592 
81 87 
81 88 
81 191 
82 89 
82 90 
82 192 
83 87 
83 90 
83 701 
84 88 
84 89 
84 702 
85 87 
85 89 
85 771 
86 88 
86 90 
86 772 
91 97 
91 98 
91 181 
92 99 
92 100 
92 182 
93 97 
93 100 
93 651 
94 98 
94 99 
94 652 
95 97 
95 99 
95 681 
96 98 
96 100 
96 682 
101 107 
101 108 
101 361 
102 109 
102 110 
102 362 
103 107 
103 110 
103 671 
104 108 
104 109 
104 672 
105 107 
105 109 
105 693 
106 108 
106 110 
106 694 
111 117 
111 118 
111 193 
112 119 
112 120 
112 194 
113 117 
113 120 
113 583 
114 118 
114 119 
114 584 
115 117 
115 119 
115 761 
116 118 
116 120 
116 762 
121 127 
121 128 
121 151 
122 129 
122 130 
122 152 
123 127 
123 130 
123 441 
124 128 
124 129 
124 442 
125 127 
125 129 
125 641 
126 128 
126 130 
126 642 
131 137 
131 138 
131 161 
132 139 
132 140 
132 162 
133 137 
133 140 
133 433 
134 138 
134 139 
134 434 
135 137 
135 139 
135 521 
136 138 
136 140 
136 522 
141 147 
141 148 
141 233 
142 149 
142 150 
142 234 
143 147 
143 150 
143 321 
144 148 
144 149 
144 322 
145 147 
145 149 
145 721 
146 148 
146 150 
146 722 
151 157 
151 158 
152 159 
152 160 
153 157 
153 160 
153 443 
154 158 
154 159 
154 444 
155 157 
155 159 
155 513 
156 158 
156 160 
156 514 
161 167 
161 168 
162 169 
162 170 
163 167 
163 170 
163 195 
164 168 
164 169 
164 196 
165 167 
165 169 
165 723 
166 168 
166 170 
166 724 
171 177 
171 178 
172 179 
172 180 
173 177 
173 180 
173 421 
174 178 
174 179 
174 422 
175 177 
175 179 
175 471 
176 178 
176 180 
176 472 
181 187 
181 188 
182 189 
182 190 
183 187 
183 190 
183 621 
184 188 
184 189 
184 622 
185 187 
185 189 
185 741 
186 188 
186 190 
186 742 
191 197 
191 198 
192 199 
192 200 
193 197 
193 200 
194 198 
194 199 
195 197 
195 199 
196 198 
196 200 
201 207 
201 208 
201 341 
202 209 
202 210 
202 342 
203 207 
203 210 
203 503 
204 208 
204 209 
204 504 
205 207 
205 209 
205 703 
206 208 
206 210 
206 704 
211 217 
211 218 
211 435 
212 219 
212 220 
212 436 
213 217 
213 220 
213 571 
214 218 
214 219 
214 572 
215 217 
215 219 
215 731 
216 218 
216 220 
216 732 
221 227 
221 228 
221 611 
222 229 
222 230 
222 612 
223 227 
223 230 
223 643 
224 228 
224 229 
224 644 
225 227 
225 229 
225 695 
226 228 
226 230 
226 696 
231 237 
231 238 
232 239 
232 240 
233 237 
233 240 
234 238 
234 239 
235 237 
235 239 
235 423 
236 238 
236 240 
236 424 
241 247 
241 248 
241 251 
242 249 
242 250 
242 252 
243 247 
243 250 
243 541 
244 248 
244 249 
244 542 
245 247 
245 249 
245 551 
246 248 
246 250 
246 552 
251 257 
251 258 
252 259 
252 260 
253 257 
253 260 
253 363 
254 258 
254 259 
254 364 
255 257 
255 259 
255 661 
256 258 
256 260 
256 662 
261 267 
261 268 
261 271 
262 269 
262 270 
262 272 
263 267 
263 270 
263 381 
264 268 
264 269 
264 382 
265 267 
265 269 
265 533 
266 268 
266 270 
266 534 
271 277 
271 278 
272 279 
272 280 
273 277 
273 280 
273 451 
274 278 
274 279 
274 452 
275 277 
275 279 
275 653 
276 278 
276 280 
276 654 
281 287 
281 288 
282 289 
282 290 
283 287 
283 290 
284 288 
284 289 
285 287 
285 289 
285 663 
286 288 
286 290 
286 664 
291 297 
291 298 
291 411 
292 299 
292 300 
292 412 
293 297 
293 300 
293 483 
294 298 
294 299 
294 484 
295 297 
295 299 
295 613 
296 298 
296 300 
296 614 
301 307 
301 308 
302 309 
302 310 
303 307 
303 310 
303 331 
304 308 
304 309 
304 332 
305 307 
305 309 
305 665 
306 308 
306 310 
306 666 
311 317 
311 318 
311 491 
312 319 
312 320 
312 492 
313 317 
313 320 
313 505 
314 318 
314 319 
314 506 
315 317 
315 319 
315 763 
316 318 
316 320 
316 764 
321 327 
321 328 
322 329 
322 330 
323 327 
323 330 
323 353 
324 328 
324 329 
324 354 
325 327 
325 329 
325 365 
326 328 
326 330 
326 366 
331 337 
331 338 
332 339 
332 340 
333 337 
333 340 
333 563 
334 338 
334 339 
334 564 
335 337 
335 339 
335 705 
336 338 
336 340 
336 706 
341 347 
341 348 
342 349 
342 350 
343 347 
343 350 
343 371 
344 348 
344 349 
344 372 
345 347 
345 349 
345 543 
346 348 
346 350 
346 544 
351 357 
351 358 
352 359 
352 360 
353 357 
353 360 
354 358 
354 359 
355 357 
355 359 
355 391 
356 358 
356 360 
356 392 
361 367 
361 368 
362 369 
362 370 
363 367 
363 370 
364 368 
364 369 
365 367 
365 369 
366 368 
366 370 
371 377 
371 378 
372 379 
372 380 
373 377 
373 380 
373 403 
374 378 
374 379 
374 404 
375 377 
375 379 
375 593 
376 378 
376 380 
376 594 
381 387 
381 388 
382 389 
382 390 
383 387 
383 390 
383 413 
384 388 
384 389 
384 414 
385 387 
385 389 
385 683 
386 388 
386 390 
386 684 
391 397 
391 398 
392 399 
392 400 
393 397 
393 400 
393 601 
394 398 
394 399 
394 602 
395 397 
395 399 
395 725 
396 398 
396 400 
396 726 
401 407 
401 408 
402 409 
402 410 
403 407 
403 410 
404 408 
404 409 
405 407 
405 409 
405 655 
406 408 
406 410 
406 656 
411 417 
411 418 
412 419 
412 420 
413 417 
413 420 
414 418 
414 419 
415 417 
415 419 
415 453 
416 418 
416 420 
416 454 
421 427 
421 428 
422 429 
422 430 
423 427 
423 430 
424 428 
424 429 
425 427 
425 429 
425 743 
426 428 
426 430 
426 744 
431 437 
431 438 
432 439 
432 440 
433 437 
433 440 
434 438 
434 439 
435 437 
435 439 
436 438 
436 440 
441 447 
441 448 
442 449 
442 450 
443 447 
443 450 
444 448 
444 449 
445 447 
445 449 
445 585 
446 448 
446 450 
446 586 
451 457 
451 458 
452 459 
452 460 
453 457 
453 460 
454 458 
454 459 
455 457 
455 459 
455 473 
456 458 
456 460 
456 474 
461 467 
461 468 
462 469 
462 470 
463 467 
463 470 
463 595 
464 468 
464 469 
464 596 
465 467 
465 469 
465 615 
466 468 
466 470 
466 616 
471 477 
471 478 
472 479 
472 480 
473 477 
473 480 
474 478 
474 479 
475 477 
475 479 
475 635 
476 478 
476 480 
476 636 
481 487 
481 488 
482 489 
482 490 
483 487 
483 490 
484 488 
484 489 
485 487 
485 489 
485 685 
486 488 
486 490 
486 686 
491 497 
491 498 
492 499 
492 500 
493 497 
493 500 
493 553 
494 498 
494 499 
494 554 
495 497 
495 499 
495 733 
496 498 
496 500 
496 734 
501 507 
501 508 
502 509 
502 510 
503 507 
503 510 
504 508 
504 509 
505 507 
505 509 
506 508 
506 510 
511 517 
511 518 
512 519 
512 520 
513 517 
513 520 
514 518 
514 519 
515 517 
515 519 
515 523 
516 518 
516 520 
516 524 
521 527 
521 528 
522 529 
522 530 
523 527 
523 530 
524 528 
524 529 
525 527 
525 529 
525 603 
526 528 
526 530 
526 604 
531 537 
531 538 
532 539 
532 540 
533 537 
533 540 
534 538 
534 539 
535 537 
535 539 
535 645 
536 538 
536 540 
536 646 
541 547 
541 548 
542 549 
542 550 
543 547 
543 550 
544 548 
544 549 
545 547 
545 549 
545 623 
546 548 
546 550 
546 624 
551 557 
551 558 
552 559 
552 560 
553 557 
553 560 
554 558 
554 559 
555 557 
555 559 
555 735 
556 558 
556 560 
556 736 
561 567 
561 568 
562 569 
562 570 
563 567 
563 570 
564 568 
564 569 
565 567 
565 569 
565 713 
566 568 
566 570 
566 714 
571 577 
571 578 
572 579 
572 580 
573 577 
573 580 
573 673 
574 578 
574 579 
574 674 
575 577 
575 579 
575 745 
576 578 
576 580 
576 746 
581 587 
581 588 
582 589 
582 590 
583 587 
583 590 
584 588 
584 589 
585 587 
585 589 
586 588 
586 590 
591 597 
591 598 
592 599 
592 600 
593 597 
593 600 
594 598 
594 599 
595 597 
595 599 
596 598 
596 600 
601 607 
601 608 
602 609 
602 610 
603 607 
603 610 
604 608 
604 609 
605 607 
605 609 
605 773 
606 608 
606 610 
606 774 
611 617 
611 618 
612 619 
612 620 
613 617 
613 620 
614 618 
614 619 
615 617 
615 619 
616 618 
616 620 
621 627 
621 628 
622 629 
622 630 
623 627 
623 630 
624 628 
624 629 
625 627 
625 629 
625 765 
626 628 
626 630 
626 766 
631 637 
631 638 
632 639 
632 640 
633 637 
633 640 
634 638 
634 639 
635 637 
635 639 
636 638 
636 640 
641 647 
641 648 
642 649 
642 650 
643 647 
643 650 
644 648 
644 649 
645 647 
645 649 
646 648 
646 650 
651 657 
651 658 
652 659 
652 660 
653 657 
653 660 
654 658 
654 659 
655 657 
655 659 
656 658 
656 660 
661 667 
661 668 
662 669 
662 670 
663 667 
663 670 
664 668 
664 669 
665 667 
665 669 
666 668 
666 670 
671 677 
671 678 
672 679 
672 680 
673 677 
673 680 
674 678 
674 679 
675 677 
675 679 
675 715 
676 678 
676 680 
676 716 
681 687 
681 688 
682 689 
682 690 
683 687 
683 690 
684 688 
684 689 
685 687 
685 689 
686 688 
686 690 
691 697 
691 698 
692 699 
692 700 
693 697 
693 700 
694 698 
694 699 
695 697 
695 699 
696 698 
696 700 
701 707 
701 708 
702 709 
702 710 
703 707 
703 710 
704 708 
704 709 
705 707 
705 709 
706 708 
706 710 
711 717 
711 718 
712 719 
712 720 
713 717 
713 720 
714 718 
714 719 
715 717 
715 719 
716 718 
716 720 
721 727 
721 728 
722 729 
722 730 
723 727 
723 730 
724 728 
724 729 
725 727 
725 729 
726 728 
726 730 
731 737 
731 738 
732 739 
732 740 
733 737 
733 740 
734 738 
734 739 
735 737 
735 739 
736 738 
736 740 
741 747 
741 748 
742 749 
742 750 
743 747 
743 750 
744 748 
744 749 
745 747 
745 749 
746 748 
746 750 
751 757 
751 758 
752 759 
752 760 
753 757 
753 760 
754 758 
754 759 
755 757 
755 759 
755 775 
756 758 
756 760 
756 776 
761 767 
761 768 
762 769 
762 770 
763 767 
763 770 
764 768 
764 769 
765 767 
765 769 
766 768 
766 770 
771 777 
771 778 
772 779 
772 780 
773 777 
773 780 
774 778 
774 779 
775 777 
775 779 
776 778 
776 780 
